(set-logic HORN)
(set-info :source |
  Benchmark: ../golem/build/RealCodeNested/originalcodeFlattenSeaHornsceleton3.c
  Generated by Korn 0.4 https://github.com/gernst/korn
|)


(declare-fun $main_sum3 (Int Int Int Int Int Int Int Int Int Int Int) Bool)
(declare-fun $main_if2 (Int Int Int Int Int Int Int Int Int Int Int Int Int Int Int Int Int Int Int Int Int Int) Bool)
(declare-fun $main_sum5 (Int Int Int Int Int Int Int Int Int Int Int) Bool)
(declare-fun $main_loop (Int Int Int Int Int Int Int Int Int Int Int Int Int Int Int Int Int Int Int Int Int Int) Bool)
(declare-fun __assert_fail (Int Int Int Int) Bool)
(declare-fun $main_inv1 (Int Int Int Int Int Int Int Int Int Int Int) Bool)
(declare-fun $main_if8 (Int Int Int Int Int Int Int Int Int Int Int Int Int Int Int Int Int Int Int Int Int Int) Bool)
(declare-fun $main_if5 (Int Int Int Int Int Int Int Int Int Int Int Int Int Int Int Int Int Int Int Int Int Int) Bool)
(declare-fun $main_inv3 (Int Int Int Int Int Int Int Int Int Int Int) Bool)
(declare-fun $main_inv5 (Int Int Int Int Int Int Int Int Int Int Int) Bool)
(declare-fun $main_if7 (Int Int Int Int Int Int Int Int Int Int Int Int Int Int Int Int Int Int Int Int Int Int) Bool)
(declare-fun __VERIFIER_assert (Int) Bool)
(declare-fun $main_if3 (Int Int Int Int Int Int Int Int Int Int Int Int Int Int Int Int Int Int Int Int Int Int) Bool)
(declare-fun $main_sum1 (Int Int Int Int Int Int Int Int Int Int Int) Bool)
(declare-fun $main_inv2 (Int Int Int Int Int Int Int Int Int Int Int) Bool)
(declare-fun $__VERIFIER_assert_pre (Int) Bool)
(declare-fun $main_sum2 (Int Int Int Int Int Int Int Int Int Int Int) Bool)
(declare-fun $__VERIFIER_assert_if1 (Int Int) Bool)
(declare-fun $n_pre () Bool)
(declare-fun $main_if9 (Int Int Int Int Int Int Int Int Int Int Int Int Int Int Int Int Int Int Int Int Int Int) Bool)
(declare-fun $main_if4 (Int Int Int Int Int Int Int Int Int Int Int Int Int Int Int Int Int Int Int Int Int Int) Bool)
(declare-fun $main_inv4 (Int Int Int Int Int Int Int Int Int Int Int) Bool)
(declare-fun $main_sum4 (Int Int Int Int Int Int Int Int Int Int Int) Bool)
(declare-fun $main_if6 (Int Int Int Int Int Int Int Int Int Int Int Int Int Int Int Int Int Int Int Int Int Int) Bool)
(declare-fun $__assert_fail_pre (Int Int Int Int) Bool)
(declare-fun n (Int) Bool)
(declare-fun $__VERIFIER_assert_ERROR (Int Int) Bool)

; label ERROR
(assert
  (forall ((cond!1 Int))
    (=> (and (not (not (= cond!1 0)))
             ($__VERIFIER_assert_pre cond!1))
        ($__VERIFIER_assert_ERROR cond!1 cond!1))))

; error
(assert
  (forall ((cond!1 Int) (cond!2 Int))
    (=> (and ($__VERIFIER_assert_ERROR cond!1 cond!2))
        false)))

; if else
(assert
  (forall ((cond!1 Int))
    (=> (and (not (not (not (= cond!1 0))))
             ($__VERIFIER_assert_pre cond!1))
        ($__VERIFIER_assert_if1 cond!1 cond!1))))

; post __VERIFIER_assert
(assert
  (forall ((cond!1 Int) (cond!3 Int))
    (=> (and ($__VERIFIER_assert_if1 cond!1 cond!3))
        (__VERIFIER_assert cond!1))))

; loop entry $main_inv1 (line 18)
(assert
  (forall ((Flattened!14 Int) (k!13 Int) (j!12 Int) (e!11 Int) (i!10 Int) (Ty!6 Int) (Worklist!5 Int) (TempRes!4 Int))
    (=> (and (<= 0 Ty!6)
             (<= Ty!6 10)
             (= e!11 10)
             (= i!10 0)
             (= Worklist!5 1)
             (= TempRes!4 0))
        ($main_inv1 TempRes!4 Worklist!5 Ty!6 i!10 e!11 j!12 i!10 e!11 j!12 k!13 Flattened!14))))

; loop term $main_sum1 (line 18)
(assert
  (forall ((TempRes!15 Int) (Ty!17 Int) (Worklist!16 Int) (e!22 Int) (i!21 Int) (k!24 Int) (j!23 Int) (Flattened!25 Int))
    (=> (and (not (> Worklist!16 0))
             ($main_inv1 TempRes!15 Worklist!16 Ty!17 i!21 e!22 j!23 i!21 e!22 j!23 k!24 Flattened!25))
        ($main_sum1 TempRes!15 Worklist!16 Ty!17 i!21 e!22 j!23 i!21 e!22 j!23 k!24 Flattened!25))))

; label loop
(assert
  (forall ((TempRes!15 Int) (Ty!17 Int) (Worklist!16 Int) (e!22 Int) (i!21 Int) (k!24 Int) (j!23 Int) (Flattened!25 Int))
    (=> (and (> Worklist!16 0)
             ($main_inv1 TempRes!15 Worklist!16 Ty!17 i!21 e!22 j!23 i!21 e!22 j!23 k!24 Flattened!25))
        ($main_loop TempRes!15 Worklist!16 Ty!17 i!21 e!22 j!23 i!21 e!22 j!23 k!24 Flattened!25 TempRes!15 Worklist!16 Ty!17 i!21 e!22 j!23 i!21 e!22 j!23 k!24 Flattened!25))))

; goto loop
(assert
  (forall ((TempRes!15 Int) (e!33 Int) (Worklist!27 Int) (i!32 Int) (Ty!17 Int) (Worklist!16 Int) (e!22 Int) (k!24 Int) (j!34 Int) (j!23 Int) (Ty!28 Int) (Flattened!25 Int) (i!21 Int) (TempRes!26 Int) (k!35 Int) (Flattened!36 Int))
    (=> (and (= Ty!28 1)
             (<= 0 Ty!28)
             (<= Ty!28 10)
             ($main_loop TempRes!15 Worklist!16 Ty!17 i!21 e!22 j!23 i!21 e!22 j!23 k!24 Flattened!25 TempRes!26 Worklist!27 Ty!28 i!32 e!33 j!34 i!32 e!33 j!34 k!35 Flattened!36))
        ($main_loop TempRes!15 Worklist!16 Ty!17 i!21 e!22 j!23 i!21 e!22 j!23 k!24 Flattened!25 (+ TempRes!26 1) (- Worklist!27 1) (mod (+ Ty!28 1) 5) i!32 e!33 j!34 i!32 e!33 j!34 k!35 Flattened!36))))

; if else
(assert
  (forall ((TempRes!15 Int) (e!33 Int) (Worklist!27 Int) (i!32 Int) (Ty!17 Int) (Worklist!16 Int) (e!22 Int) (k!24 Int) (j!34 Int) (j!23 Int) (Ty!28 Int) (Flattened!25 Int) (i!21 Int) (TempRes!26 Int) (k!35 Int) (Flattened!36 Int))
    (=> (and (not (= Ty!28 1))
             (<= 0 Ty!28)
             (<= Ty!28 10)
             ($main_loop TempRes!15 Worklist!16 Ty!17 i!21 e!22 j!23 i!21 e!22 j!23 k!24 Flattened!25 TempRes!26 Worklist!27 Ty!28 i!32 e!33 j!34 i!32 e!33 j!34 k!35 Flattened!36))
        ($main_if2 TempRes!15 Worklist!16 Ty!17 i!21 e!22 j!23 i!21 e!22 j!23 k!24 Flattened!25 TempRes!26 (- Worklist!27 1) Ty!28 i!32 e!33 j!34 i!32 e!33 j!34 k!35 Flattened!36))))

; if then
(assert
  (forall ((Ty!39 Int) (TempRes!15 Int) (TempRes!37 Int) (k!46 Int) (Worklist!16 Int) (e!22 Int) (i!21 Int) (Flattened!47 Int) (j!23 Int) (Flattened!25 Int) (e!44 Int) (i!43 Int) (Ty!17 Int) (j!45 Int) (Worklist!38 Int) (k!24 Int))
    (=> (and (= j!45 0)
             (< Worklist!38 0)
             (not (or (or (= Ty!39 2) (= Ty!39 3)) (= Ty!39 4)))
             ($main_if2 TempRes!15 Worklist!16 Ty!17 i!21 e!22 j!23 i!21 e!22 j!23 k!24 Flattened!25 TempRes!37 Worklist!38 Ty!39 i!43 e!44 j!45 i!43 e!44 j!45 k!46 Flattened!47))
        ($main_if3 TempRes!15 Worklist!16 Ty!17 i!21 e!22 j!23 i!21 e!22 j!23 k!24 Flattened!25 (+ TempRes!37 1) (+ Worklist!38 1) Ty!39 i!43 e!44 j!45 i!43 e!44 j!45 k!46 Flattened!47))))

; if else
(assert
  (forall ((Ty!39 Int) (TempRes!15 Int) (TempRes!37 Int) (k!46 Int) (Worklist!16 Int) (e!22 Int) (i!21 Int) (Flattened!47 Int) (j!23 Int) (Flattened!25 Int) (e!44 Int) (i!43 Int) (Ty!17 Int) (j!45 Int) (Worklist!38 Int) (k!24 Int))
    (=> (and (not (= j!45 0))
             (< Worklist!38 0)
             (not (or (or (= Ty!39 2) (= Ty!39 3)) (= Ty!39 4)))
             ($main_if2 TempRes!15 Worklist!16 Ty!17 i!21 e!22 j!23 i!21 e!22 j!23 k!24 Flattened!25 TempRes!37 Worklist!38 Ty!39 i!43 e!44 j!45 i!43 e!44 j!45 k!46 Flattened!47))
        ($main_if3 TempRes!15 Worklist!16 Ty!17 i!21 e!22 j!23 i!21 e!22 j!23 k!24 Flattened!25 (+ TempRes!37 1) Worklist!38 Ty!39 i!43 e!44 j!45 i!43 e!44 j!45 k!46 Flattened!47))))

; goto loop
(assert
  (forall ((Worklist!49 Int) (TempRes!15 Int) (k!57 Int) (Ty!17 Int) (Worklist!16 Int) (Ty!50 Int) (k!24 Int) (i!54 Int) (Flattened!25 Int) (e!22 Int) (j!56 Int) (Flattened!58 Int) (i!21 Int) (j!23 Int) (TempRes!48 Int) (e!55 Int))
    (=> (and ($main_if3 TempRes!15 Worklist!16 Ty!17 i!21 e!22 j!23 i!21 e!22 j!23 k!24 Flattened!25 TempRes!48 Worklist!49 Ty!50 i!54 e!55 j!56 i!54 e!55 j!56 k!57 Flattened!58))
        ($main_loop TempRes!15 Worklist!16 Ty!17 i!21 e!22 j!23 i!21 e!22 j!23 k!24 Flattened!25 TempRes!48 Worklist!49 Ty!50 i!54 e!55 j!56 i!54 e!55 j!56 k!57 Flattened!58))))

; if else
(assert
  (forall ((Ty!39 Int) (TempRes!15 Int) (TempRes!37 Int) (k!46 Int) (Worklist!16 Int) (e!22 Int) (i!21 Int) (Flattened!47 Int) (j!23 Int) (Flattened!25 Int) (e!44 Int) (i!43 Int) (Ty!17 Int) (j!45 Int) (Worklist!38 Int) (k!24 Int))
    (=> (and (not (< Worklist!38 0))
             (not (or (or (= Ty!39 2) (= Ty!39 3)) (= Ty!39 4)))
             ($main_if2 TempRes!15 Worklist!16 Ty!17 i!21 e!22 j!23 i!21 e!22 j!23 k!24 Flattened!25 TempRes!37 Worklist!38 Ty!39 i!43 e!44 j!45 i!43 e!44 j!45 k!46 Flattened!47))
        ($main_if4 TempRes!15 Worklist!16 Ty!17 i!21 e!22 j!23 i!21 e!22 j!23 k!24 Flattened!25 (+ TempRes!37 1) Worklist!38 Ty!39 i!43 e!44 j!45 i!43 e!44 j!45 k!46 Flattened!47))))

; if then
(assert
  (forall ((Ty!61 Int) (Ty!17 Int) (j!67 Int) (Worklist!16 Int) (e!22 Int) (i!21 Int) (k!24 Int) (k!68 Int) (TempRes!15 Int) (i!65 Int) (e!66 Int) (Flattened!69 Int) (j!23 Int) (Worklist!60 Int) (Flattened!25 Int) (TempRes!59 Int))
    (=> (and ($main_if4 TempRes!15 Worklist!16 Ty!17 i!21 e!22 j!23 i!21 e!22 j!23 k!24 Flattened!25 TempRes!59 Worklist!60 Ty!61 i!65 e!66 j!67 i!65 e!66 j!67 k!68 Flattened!69))
        ($main_if5 TempRes!15 Worklist!16 Ty!17 i!21 e!22 j!23 i!21 e!22 j!23 k!24 Flattened!25 TempRes!59 Worklist!60 Ty!61 i!65 e!66 j!67 i!65 e!66 j!67 k!68 Flattened!69))))

; if else
(assert
  (forall ((Ty!39 Int) (TempRes!15 Int) (TempRes!37 Int) (k!46 Int) (Worklist!16 Int) (e!22 Int) (i!21 Int) (Flattened!47 Int) (j!23 Int) (Flattened!25 Int) (e!44 Int) (i!43 Int) (Ty!17 Int) (j!45 Int) (Worklist!38 Int) (k!24 Int))
    (=> (and (not (not (or (or (= Ty!39 2) (= Ty!39 3)) (= Ty!39 4))))
             ($main_if2 TempRes!15 Worklist!16 Ty!17 i!21 e!22 j!23 i!21 e!22 j!23 k!24 Flattened!25 TempRes!37 Worklist!38 Ty!39 i!43 e!44 j!45 i!43 e!44 j!45 k!46 Flattened!47))
        ($main_if5 TempRes!15 Worklist!16 Ty!17 i!21 e!22 j!23 i!21 e!22 j!23 k!24 Flattened!25 TempRes!37 Worklist!38 Ty!39 i!43 e!44 j!45 i!43 e!44 j!45 k!46 Flattened!47))))

; loop entry $main_inv2 (line 46)
(assert
  (forall ((TempRes!15 Int) (Worklist!71 Int) (e!77 Int) (Ty!17 Int) (TempRes!70 Int) (Worklist!16 Int) (i!76 Int) (e!22 Int) (i!21 Int) (k!24 Int) (j!23 Int) (Flattened!25 Int) (j!78 Int) (k!79 Int) (Flattened!80 Int) (Ty!72 Int))
    (=> (and (= e!77 10)
             (= i!76 0)
             (= Ty!72 2)
             ($main_if5 TempRes!15 Worklist!16 Ty!17 i!21 e!22 j!23 i!21 e!22 j!23 k!24 Flattened!25 TempRes!70 Worklist!71 Ty!72 i!76 e!77 j!78 i!76 e!77 j!78 k!79 Flattened!80))
        ($main_inv2 TempRes!70 Worklist!71 (mod (+ Ty!72 1) 5) i!76 e!77 j!78 i!76 e!77 j!78 k!79 Flattened!80))))

; loop term $main_sum2 (line 46)
(assert
  (forall ((TempRes!81 Int) (i!87 Int) (e!88 Int) (j!89 Int) (Flattened!91 Int) (Worklist!82 Int) (Ty!83 Int) (k!90 Int))
    (=> (and (not (not (= i!87 e!88)))
             ($main_inv2 TempRes!81 Worklist!82 Ty!83 i!87 e!88 j!89 i!87 e!88 j!89 k!90 Flattened!91))
        ($main_sum2 TempRes!81 Worklist!82 Ty!83 i!87 e!88 j!89 i!87 e!88 j!89 k!90 Flattened!91))))

; forwards $main_inv2 (line 46)
(assert
  (forall ((TempRes!81 Int) (i!87 Int) (e!88 Int) (j!89 Int) (Flattened!91 Int) (Worklist!82 Int) (Ty!83 Int) (k!90 Int))
    (=> (and (not (= i!87 e!88))
             ($main_inv2 TempRes!81 Worklist!82 Ty!83 i!87 e!88 j!89 i!87 e!88 j!89 k!90 Flattened!91))
        ($main_inv2 TempRes!81 (+ Worklist!82 1) Ty!83 (+ i!87 1) e!88 j!89 (+ i!87 1) e!88 j!89 k!90 Flattened!91))))

; goto loop
(assert
  (forall ((k!101 Int) (Ty!17 Int) (Worklist!16 Int) (Flattened!102 Int) (i!21 Int) (k!24 Int) (j!23 Int) (Flattened!25 Int) (TempRes!15 Int) (j!100 Int) (Ty!94 Int) (Worklist!93 Int) (e!22 Int) (TempRes!92 Int) (i!98 Int) (e!99 Int))
    (=> (and ($main_sum2 TempRes!92 Worklist!93 Ty!94 i!98 e!99 j!100 i!98 e!99 j!100 k!101 Flattened!102))
        ($main_loop TempRes!15 Worklist!16 Ty!17 i!21 e!22 j!23 i!21 e!22 j!23 k!24 Flattened!25 TempRes!92 Worklist!93 Ty!94 i!98 e!99 j!100 i!98 e!99 j!100 k!101 Flattened!102))))

; if else
(assert
  (forall ((TempRes!15 Int) (Worklist!71 Int) (e!77 Int) (Ty!17 Int) (TempRes!70 Int) (Worklist!16 Int) (i!76 Int) (e!22 Int) (i!21 Int) (k!24 Int) (j!23 Int) (Flattened!25 Int) (j!78 Int) (k!79 Int) (Flattened!80 Int) (Ty!72 Int))
    (=> (and (not (= Ty!72 2))
             ($main_if5 TempRes!15 Worklist!16 Ty!17 i!21 e!22 j!23 i!21 e!22 j!23 k!24 Flattened!25 TempRes!70 Worklist!71 Ty!72 i!76 e!77 j!78 i!76 e!77 j!78 k!79 Flattened!80))
        ($main_if6 TempRes!15 Worklist!16 Ty!17 i!21 e!22 j!23 i!21 e!22 j!23 k!24 Flattened!25 TempRes!70 Worklist!71 Ty!72 i!76 e!77 j!78 i!76 e!77 j!78 k!79 Flattened!80))))

; loop entry $main_inv3 (line 56)
(assert
  (forall ((TempRes!15 Int) (Ty!17 Int) (TempRes!103 Int) (Worklist!16 Int) (i!109 Int) (e!22 Int) (i!21 Int) (j!23 Int) (Flattened!25 Int) (Worklist!104 Int) (Ty!105 Int) (e!110 Int) (Flattened!113 Int) (j!111 Int) (k!24 Int) (k!112 Int))
    (=> (and (= Ty!105 3)
             ($main_if6 TempRes!15 Worklist!16 Ty!17 i!21 e!22 j!23 i!21 e!22 j!23 k!24 Flattened!25 TempRes!103 Worklist!104 Ty!105 i!109 e!110 j!111 i!109 e!110 j!111 k!112 Flattened!113))
        ($main_inv3 TempRes!103 Worklist!104 (mod (+ Ty!105 1) 5) i!109 e!110 j!111 i!109 e!110 j!111 k!112 Flattened!113))))

; loop term $main_sum3 (line 56)
(assert
  (forall ((Flattened!124 Int) (TempRes!114 Int) (Ty!116 Int) (e!121 Int) (k!123 Int) (i!120 Int) (j!122 Int) (Worklist!115 Int))
    (=> (and (not (not (= i!120 e!121)))
             ($main_inv3 TempRes!114 Worklist!115 Ty!116 i!120 e!121 j!122 i!120 e!121 j!122 k!123 Flattened!124))
        ($main_sum3 TempRes!114 Worklist!115 Ty!116 i!120 e!121 j!122 i!120 e!121 j!122 k!123 Flattened!124))))

; forwards $main_inv3 (line 56)
(assert
  (forall ((Flattened!124 Int) (TempRes!114 Int) (Ty!116 Int) (e!121 Int) (k!123 Int) (i!120 Int) (j!122 Int) (Worklist!115 Int))
    (=> (and (not (= i!120 e!121))
             ($main_inv3 TempRes!114 Worklist!115 Ty!116 i!120 e!121 j!122 i!120 e!121 j!122 k!123 Flattened!124))
        ($main_inv3 TempRes!114 (+ Worklist!115 1) Ty!116 (+ i!120 1) e!121 j!122 (+ i!120 1) e!121 j!122 k!123 Flattened!124))))

; goto loop
(assert
  (forall ((TempRes!15 Int) (Ty!127 Int) (Flattened!135 Int) (i!131 Int) (Ty!17 Int) (Worklist!126 Int) (e!22 Int) (i!21 Int) (k!24 Int) (e!132 Int) (j!23 Int) (TempRes!125 Int) (Flattened!25 Int) (k!134 Int) (Worklist!16 Int) (j!133 Int))
    (=> (and ($main_sum3 TempRes!125 Worklist!126 Ty!127 i!131 e!132 j!133 i!131 e!132 j!133 k!134 Flattened!135))
        ($main_loop TempRes!15 Worklist!16 Ty!17 i!21 e!22 j!23 i!21 e!22 j!23 k!24 Flattened!25 TempRes!125 Worklist!126 Ty!127 i!131 e!132 j!133 i!131 e!132 j!133 k!134 Flattened!135))))

; if else
(assert
  (forall ((TempRes!15 Int) (Ty!17 Int) (TempRes!103 Int) (Worklist!16 Int) (i!109 Int) (e!22 Int) (i!21 Int) (j!23 Int) (Flattened!25 Int) (Worklist!104 Int) (Ty!105 Int) (e!110 Int) (Flattened!113 Int) (j!111 Int) (k!24 Int) (k!112 Int))
    (=> (and (not (= Ty!105 3))
             ($main_if6 TempRes!15 Worklist!16 Ty!17 i!21 e!22 j!23 i!21 e!22 j!23 k!24 Flattened!25 TempRes!103 Worklist!104 Ty!105 i!109 e!110 j!111 i!109 e!110 j!111 k!112 Flattened!113))
        ($main_if7 TempRes!15 Worklist!16 Ty!17 i!21 e!22 j!23 i!21 e!22 j!23 k!24 Flattened!25 TempRes!103 Worklist!104 Ty!105 i!109 e!110 j!111 i!109 e!110 j!111 k!112 Flattened!113))))

; loop entry $main_inv4 (line 66)
(assert
  (forall ((TempRes!15 Int) (Ty!17 Int) (Worklist!16 Int) (Worklist!137 Int) (k!24 Int) (Ty!138 Int) (k!145 Int) (Flattened!25 Int) (e!22 Int) (e!143 Int) (TempRes!136 Int) (i!21 Int) (j!23 Int) (j!144 Int) (Flattened!146 Int) (i!142 Int))
    (=> (and (= Ty!138 4)
             ($main_if7 TempRes!15 Worklist!16 Ty!17 i!21 e!22 j!23 i!21 e!22 j!23 k!24 Flattened!25 TempRes!136 Worklist!137 Ty!138 i!142 e!143 j!144 i!142 e!143 j!144 k!145 Flattened!146))
        ($main_inv4 TempRes!136 Worklist!137 (mod (+ Ty!138 1) 5) i!142 e!143 j!144 i!142 e!143 j!144 k!145 Flattened!146))))

; loop term $main_sum4 (line 66)
(assert
  (forall ((e!154 Int) (j!155 Int) (TempRes!147 Int) (Flattened!157 Int) (k!156 Int) (Ty!149 Int) (Worklist!148 Int) (i!153 Int))
    (=> (and (not (not (= i!153 e!154)))
             ($main_inv4 TempRes!147 Worklist!148 Ty!149 i!153 e!154 j!155 i!153 e!154 j!155 k!156 Flattened!157))
        ($main_sum4 TempRes!147 Worklist!148 Ty!149 i!153 e!154 j!155 i!153 e!154 j!155 k!156 Flattened!157))))

; forwards $main_inv4 (line 66)
(assert
  (forall ((e!154 Int) (j!155 Int) (TempRes!147 Int) (Flattened!157 Int) (k!156 Int) (Ty!149 Int) (Worklist!148 Int) (i!153 Int))
    (=> (and (not (= i!153 e!154))
             ($main_inv4 TempRes!147 Worklist!148 Ty!149 i!153 e!154 j!155 i!153 e!154 j!155 k!156 Flattened!157))
        ($main_inv4 TempRes!147 (+ Worklist!148 1) Ty!149 (+ i!153 1) e!154 j!155 (+ i!153 1) e!154 j!155 k!156 Flattened!157))))

; if then
(assert
  (forall ((e!165 Int) (TempRes!15 Int) (i!164 Int) (Ty!17 Int) (Worklist!159 Int) (k!167 Int) (Worklist!16 Int) (e!22 Int) (i!21 Int) (Flattened!25 Int) (TempRes!158 Int) (Ty!160 Int) (k!24 Int) (Flattened!168 Int) (j!23 Int) (j!166 Int))
    (=> (and ($main_sum4 TempRes!158 Worklist!159 Ty!160 i!164 e!165 j!166 i!164 e!165 j!166 k!167 Flattened!168))
        ($main_if8 TempRes!15 Worklist!16 Ty!17 i!21 e!22 j!23 i!21 e!22 j!23 k!24 Flattened!25 TempRes!158 Worklist!159 Ty!160 i!164 e!165 j!166 i!164 e!165 j!166 k!167 Flattened!168))))

; if else
(assert
  (forall ((TempRes!15 Int) (Ty!17 Int) (Worklist!16 Int) (Worklist!137 Int) (k!24 Int) (Ty!138 Int) (k!145 Int) (Flattened!25 Int) (e!22 Int) (e!143 Int) (TempRes!136 Int) (i!21 Int) (j!23 Int) (j!144 Int) (Flattened!146 Int) (i!142 Int))
    (=> (and (not (= Ty!138 4))
             ($main_if7 TempRes!15 Worklist!16 Ty!17 i!21 e!22 j!23 i!21 e!22 j!23 k!24 Flattened!25 TempRes!136 Worklist!137 Ty!138 i!142 e!143 j!144 i!142 e!143 j!144 k!145 Flattened!146))
        ($main_if8 TempRes!15 Worklist!16 Ty!17 i!21 e!22 j!23 i!21 e!22 j!23 k!24 Flattened!25 TempRes!136 Worklist!137 Ty!138 i!142 e!143 j!144 i!142 e!143 j!144 k!145 Flattened!146))))

; forwards $main_inv1 (line 18)
(assert
  (forall ((k!178 Int) (TempRes!15 Int) (e!176 Int) (Worklist!170 Int) (TempRes!169 Int) (e!22 Int) (i!21 Int) (k!24 Int) (Flattened!179 Int) (j!23 Int) (j!177 Int) (Flattened!25 Int) (Ty!17 Int) (Ty!171 Int) (Worklist!16 Int) (i!175 Int))
    (=> (and ($main_if8 TempRes!15 Worklist!16 Ty!17 i!21 e!22 j!23 i!21 e!22 j!23 k!24 Flattened!25 TempRes!169 Worklist!170 Ty!171 i!175 e!176 j!177 i!175 e!176 j!177 k!178 Flattened!179))
        ($main_inv1 TempRes!169 (- Worklist!170 2) Ty!171 0 e!176 j!177 0 e!176 j!177 k!178 Flattened!179))))

; loop entry $main_inv5 (line 78)
(assert
  (forall ((k!189 Int) (j!188 Int) (Ty!182 Int) (Flattened!190 Int) (e!187 Int) (TempRes!180 Int) (Worklist!181 Int) (i!186 Int))
    (=> (and (= Flattened!190 1)
             (= k!189 TempRes!180)
             (= j!188 1)
             ($main_sum1 TempRes!180 Worklist!181 Ty!182 i!186 e!187 j!188 i!186 e!187 j!188 k!189 Flattened!190))
        ($main_inv5 TempRes!180 Worklist!181 Ty!182 i!186 e!187 j!188 i!186 e!187 j!188 k!189 Flattened!190))))

; loop term $main_sum5 (line 78)
(assert
  (forall ((i!197 Int) (Flattened!201 Int) (Worklist!192 Int) (e!198 Int) (TempRes!191 Int) (j!199 Int) (Ty!193 Int) (k!200 Int))
    (=> (and (not (< j!199 k!200))
             ($main_inv5 TempRes!191 Worklist!192 Ty!193 i!197 e!198 j!199 i!197 e!198 j!199 k!200 Flattened!201))
        ($main_sum5 TempRes!191 Worklist!192 Ty!193 i!197 e!198 j!199 i!197 e!198 j!199 k!200 Flattened!201))))

; if then
(assert
  (forall ((i!197 Int) (Flattened!201 Int) (Worklist!192 Int) (e!198 Int) (TempRes!191 Int) (j!199 Int) (Ty!193 Int) (k!200 Int))
    (=> (and (= 1 Flattened!201)
             (< j!199 k!200)
             ($main_inv5 TempRes!191 Worklist!192 Ty!193 i!197 e!198 j!199 i!197 e!198 j!199 k!200 Flattened!201))
        ($main_if9 TempRes!191 Worklist!192 Ty!193 i!197 e!198 j!199 i!197 e!198 j!199 k!200 Flattened!201 TempRes!191 Worklist!192 Ty!193 i!197 e!198 j!199 i!197 e!198 j!199 k!200 (+ Flattened!201 1)))))

; if else
(assert
  (forall ((i!197 Int) (Flattened!201 Int) (Worklist!192 Int) (e!198 Int) (TempRes!191 Int) (j!199 Int) (Ty!193 Int) (k!200 Int))
    (=> (and (not (= 1 Flattened!201))
             (< j!199 k!200)
             ($main_inv5 TempRes!191 Worklist!192 Ty!193 i!197 e!198 j!199 i!197 e!198 j!199 k!200 Flattened!201))
        ($main_if9 TempRes!191 Worklist!192 Ty!193 i!197 e!198 j!199 i!197 e!198 j!199 k!200 Flattened!201 TempRes!191 Worklist!192 Ty!193 i!197 e!198 j!199 i!197 e!198 j!199 k!200 1))))

; forwards $main_inv5 (line 78)
(assert
  (forall ((k!211 Int) (i!208 Int) (Worklist!192 Int) (e!209 Int) (Worklist!203 Int) (i!197 Int) (Ty!204 Int) (Flattened!201 Int) (TempRes!202 Int) (TempRes!191 Int) (Flattened!212 Int) (j!199 Int) (Ty!193 Int) (k!200 Int) (j!210 Int) (e!198 Int))
    (=> (and ($main_if9 TempRes!191 Worklist!192 Ty!193 i!197 e!198 j!199 i!197 e!198 j!199 k!200 Flattened!201 TempRes!202 Worklist!203 Ty!204 i!208 e!209 j!210 i!208 e!209 j!210 k!211 Flattened!212))
        ($main_inv5 TempRes!202 Worklist!203 Ty!204 (+ i!208 1) e!209 j!210 (+ i!208 1) e!209 j!210 k!211 Flattened!212))))

; VERIFIER_assert (or (and (> TempRes!213 3) (or (= Flattened!223 1) (= Flattened!223 2))) (and (<= TempRes!213 3) (= Flattened!223 1)))
(assert
  (forall ((Ty!215 Int) (Flattened!223 Int) (TempRes!213 Int) (i!219 Int) (Worklist!214 Int) (e!220 Int) (k!222 Int) (j!221 Int))
    (=> (and (not (or (and (> TempRes!213 3) (or (= Flattened!223 1) (= Flattened!223 2))) (and (<= TempRes!213 3) (= Flattened!223 1))))
             ($main_sum5 TempRes!213 Worklist!214 Ty!215 i!219 e!220 j!221 i!219 e!220 j!221 k!222 Flattened!223))
        false)))

(check-sat)
